unsat
(define-fun f ((x (_ BitVec 64))) (_ BitVec 64) (let ((_let_1 (bvnot (smol x)))) (im (bvand #b0000000000000000000000000000000000000000000000000000000000000001 (bvnot x)) (im (ehad (ehad x)) _let_1 (bvadd #b0000000000000000000000000000000000000000000000000000000000000001 (bvor #b0000000000000000000000000000000000000000000000000000000000000001 x))) _let_1)))
0.09user 0.00system 0:00.09elapsed 97%CPU (0avgtext+0avgdata 29008maxresident)k
8inputs+8outputs (0major+1925minor)pagefaults 0swaps
